NAME : A-n10-2
DIMENSION : 10
VEHICLE NUMBER : 5
VEHICLE CAPACITY : 70
MAX POD NUMBER : 2
NODE_COORD_SECTION 
 1 42 68
 2 77 97
 3 28 64
 4 77 39
 5 32 33
 6 32 8
 7 42 92
 8 8 3
 9 7 14
 10 82 17
DEMAND_SECTION 
1 0 
2 5 
3 23 
4 14 
5 13 
6 8 
7 18 
8 19 
9 10 
10 18 
DEPOT_SECTION 
 1  
 -1  
EOF 
